# created by fftool

variable mytemp      equal 280.0
variable mypress_max equal 100.0
variable mypress_min equal 1.0

units real
boundary p p p

atom_style  full
bond_style  harmonic
angle_style harmonic
special_bonds lj/coul 0.0 0.0 0.5

pair_style lj/cut/coul/long 12.0 12.0
kspace_style pppm 1.0e-4

# read data file
read_data data.lmp

pair_coeff    1    1      0.159986     3.033000  # O O
pair_coeff    2    2      0.055899     2.757000  # C C

minimize 1.0e-4 1.0e-6 100 1000
reset_timestep 0

neighbor 2.0 bin
neigh_modify delay 0 every 1 check yes

timestep 1.0

# variables 
variable step equal step
variable time equal time
variable lx   equal lx
variable ly   equal ly
variable lz   equal lz

variable temp equal temp
variable pxx  equal pxx
variable pyy  equal pyy
variable pzz  equal pzz
variable atoms equal atoms

variable density equal density

# init.
velocity all create ${mytemp} 5454345 mom yes rot yes

fix myshake all shake 0.0001 20 0 b 1

thermo_style custom step atoms temp press lx ly lz density
thermo 1000

# eq.

fix log all print 1000 "${step} ${time} ${temp} ${atoms} ${pxx} ${pyy} ${pzz} ${lx} ${ly} ${lz} ${density}" title "step time temp atoms pxx pyy pzz lx ly lz density" file result_thermo_eq.log screen no


fix mynpt all npt temp ${mytemp} ${mytemp} 100 iso ${mypress_max} ${mypress_max} 1000
run 500000
unfix mynpt
unfix log
reset_timestep 0
write_data data.eq.lmp nofix

# expansion simulation
fix mynpt all npt temp ${mytemp} ${mytemp} 100 iso ${mypress_max} ${mypress_min} 1000

fix log all print 1000 "${step} ${time} ${temp} ${atoms} ${pxx} ${pyy} ${pzz} ${lx} ${ly} ${lz} ${density}" title "step time temp atoms pxx pyy pzz lx ly lz density" file result_thermo_expansion.log screen no

write_data result_atoms.data nofix
dump myatom all atom 100000 result_atoms_expansion.lammpstrj

run 10000000

